SIRLTrain/InsuranceSalesScheduling.sol
# Solution for model InsuranceSalesStaffScheduling
# Objective value = 1000
Sales[2,2] 1000
WorkTime[2,2] 5
